interdiction/MCDM/NO_CORR/GEN_FROM_60/13_ITEMS_1000_GEN/K5013W13.KNP.mps
NAME          BLANK   
ROWS
 N  OBJROW
 L  R0000000
COLUMNS
    C0000000  OBJROW     -201.         R0000000  699.        
    C0000001  OBJROW     -976.         R0000000  679.        
    C0000002  OBJROW     -961.         R0000000  910.        
    C0000003  OBJROW     -442.         R0000000  131.        
    C0000004  OBJROW     -543.         R0000000  567.        
    C0000005  OBJROW     -910.         R0000000  134.        
    C0000006  OBJROW     -955.         R0000000  132.        
    C0000007  OBJROW     -429.         R0000000  384.        
    C0000008  OBJROW     -766.         R0000000  249.        
    C0000009  OBJROW     -119.         R0000000  377.        
    C0000010  OBJROW     -610.         R0000000  831.        
    C0000011  OBJROW     -530.         R0000000  432.        
    C0000012  OBJROW     -947.         R0000000  537.        
RHS
    RHS       R0000000  14228.      
BOUNDS
 BV BOUND     C0000000  1.          
 BV BOUND     C0000001  1.          
 BV BOUND     C0000002  1.          
 BV BOUND     C0000003  1.          
 BV BOUND     C0000004  1.          
 BV BOUND     C0000005  1.          
 BV BOUND     C0000006  1.          
 BV BOUND     C0000007  1.          
 BV BOUND     C0000008  1.          
 BV BOUND     C0000009  1.          
 BV BOUND     C0000010  1.          
 BV BOUND     C0000011  1.          
 BV BOUND     C0000012  1.          
ENDATA
