interdiction/MCDM/NO_CORR/GEN_FROM_60/13_ITEMS_1000_GEN/K5013W13.KNP.txt
N 13
M 14
LC 13
LC 14
LC 15
LC 16
LC 17
LC 18
LC 19
LC 20
LC 21
LC 22
LC 23
LC 24
LC 25
LR 1
LR 2
LR 3
LR 4
LR 5
LR 6
LR 7
LR 8
LR 9
LR 10
LR 11
LR 12
LR 13
LR 14
LO -201
LO -976
LO -961
LO -442
LO -543
LO -910
LO -955
LO -429
LO -766
LO -119
LO -610
LO -530
LO -947
OS 1
IC 954
IC 811
IC 532
IC 783
IC 912
IC 266
IC 893
IC 729
IC 42
IC 124
IC 8
IC 488
IC 954
IB 3748
